c 37_4_checker.cnf
c
c field = 37
c formula set type = 4_checker
c
p cnf 5 50
64 
66 
68 
70 
-62 
65 
67 
69 
71 
-63 
64 
66 
68 
70 
-74 
65 
67 
69 
71 
-75 
66 
68 
70 
74 
-64 
67 
69 
71 
75 
-65 
66 
68 
70 
74 
-76 
67 
69 
71 
75 
-77 
68 
70 
74 
76 
-66 
69 
71 
75 
77 
-67 
68 
70 
74 
76 
-78 
69 
71 
75 
77 
-79 
70 
74 
76 
78 
-68 
71 
75 
77 
79 
-69 
70 
74 
76 
78 
-80 
71 
75 
77 
79 
-81 
74 
76 
78 
80 
-70 
75 
77 
79 
81 
-71 
74 
76 
78 
80 
-82 
75 
77 
79 
81 
-83 
12 
42 
102 
132 
-162 
13 
43 
103 
133 
-163 
42 
102 
132 
162 
-12 
43 
103 
133 
163 
-13 
42 
102 
132 
162 
-192 
43 
103 
133 
163 
-193 
102 
132 
162 
192 
-42 
103 
133 
163 
193 
-43 
102 
132 
162 
192 
-222 
103 
133 
163 
193 
-223 
8 
40 
104 
136 
-168 
9 
41 
105 
137 
-169 
40 
104 
136 
168 
-8 
41 
105 
137 
169 
-9 
40 
104 
136 
168 
-200 
41 
105 
137 
169 
-201 
104 
136 
168 
200 
-40 
105 
137 
169 
201 
-41 
104 
136 
168 
200 
-232 
105 
137 
169 
201 
-233 
16 
44 
100 
128 
-156 
17 
45 
101 
129 
-157 
44 
100 
128 
156 
-16 
45 
101 
129 
157 
-17 
44 
100 
128 
156 
-184 
45 
101 
129 
157 
-185 
100 
128 
156 
184 
-44 
101 
129 
157 
185 
-45 
100 
128 
156 
184 
-212 
101 
129 
157 
185 
-213 
